(set-logic QF_FF)
(set-info :smt-lib-version 2.6)
(set-info :category "crafted")
(define-sort F () (_ FiniteField 5))
(declare-const x F)
(declare-const y F)
(assert (= x y))
(assert (= x (ff.mul x x)))
(assert (= x (ff.add x x)))
(check-sat)

